objective value:                           -6045.6894
x2                                                  1 	(obj:-311.114)
x14                                                 1 	(obj:-758.123)
x70                                                 1 	(obj:-166.867)
x113                                                1 	(obj:-232.699)
x118                                                1 	(obj:-289.874)
x167                                                1 	(obj:-70.4128)
x169                                                1 	(obj:-521.155)
x234                                                1 	(obj:-239.543)
x237                                                1 	(obj:-69.5536)
x249                                                1 	(obj:-234.203)
x275                                                1 	(obj:-196.543)
x310                                                1 	(obj:-808.21)
x369                                                1 	(obj:-240.573)
x377                                                1 	(obj:-225.276)
x390                                                1 	(obj:-137.957)
x392                                                1 	(obj:-184.41)
x403                                                1 	(obj:-406.244)
x438                                                1 	(obj:-276.233)
x462                                                1 	(obj:-319.053)
x466                                                1 	(obj:-74.127)
x484                                                1 	(obj:-283.519)
